Version identifier: 22.1.0.0 | 2022-03-09 | 1a383f8ce
CPXPARAM_Read_DataCheck                          1
Tried aggregator 4 times.
MIP Presolve eliminated 59616 rows and 6481 columns.
MIP Presolve modified 800 coefficients.
Aggregator did 54698 substitutions.
Reduced MIP has 6758 rows, 55845 columns, and 118562 nonzeros.
Reduced MIP has 55813 binaries, 32 generals, 0 SOSs, and 0 indicators.
Presolve time = 0.64 sec. (683.98 ticks)
Tried aggregator 1 time.
Detecting symmetries...
Reduced MIP has 6758 rows, 55845 columns, and 118562 nonzeros.
Reduced MIP has 55813 binaries, 32 generals, 0 SOSs, and 0 indicators.
Presolve time = 0.11 sec. (89.66 ticks)
Probing fixed 49 vars, tightened 0 bounds.
Probing time = 0.26 sec. (25.36 ticks)
Clique table members: 113204.
MIP emphasis: balance optimality and feasibility.
MIP search method: dynamic search.
Parallel mode: deterministic, using up to 8 threads.
Root relaxation solution time = 0.90 sec. (412.37 ticks)

        Nodes                                         Cuts/
   Node  Left     Objective  IInf  Best Integer    Best Bound    ItCnt     Gap

      0     0       32.4165  5223                     32.4165       19         
      0     0       53.0000   909                    Cuts: 51     9489         
      0     0       53.0000   702                    Cuts: 48    17465         
      0     0       53.0000   808                ZeroHalf: 53    24245         
*     0+    0                           58.0000       53.0000             8.62%
      0     0       53.0000   537       58.0000   ZeroHalf: 2    25544    8.62%
*     0+    0                           57.0000       53.0000             7.02%
      0     0       53.0000   685       57.0000      Cuts: 32    33495    7.02%
Heuristic still looking.
Version identifier: 22.1.0.0 | 2022-03-09 | 1a383f8ce
CPXPARAM_Read_DataCheck                          1
Tried aggregator 4 times.
MIP Presolve eliminated 59616 rows and 6481 columns.
MIP Presolve modified 800 coefficients.
Aggregator did 54698 substitutions.
Reduced MIP has 6758 rows, 55845 columns, and 118562 nonzeros.
Reduced MIP has 55813 binaries, 32 generals, 0 SOSs, and 0 indicators.
Presolve time = 0.64 sec. (683.98 ticks)
Tried aggregator 1 time.
Detecting symmetries...
Reduced MIP has 6758 rows, 55845 columns, and 118562 nonzeros.
Reduced MIP has 55813 binaries, 32 generals, 0 SOSs, and 0 indicators.
Presolve time = 0.11 sec. (89.66 ticks)
Probing fixed 49 vars, tightened 0 bounds.
Probing time = 0.25 sec. (25.36 ticks)
Clique table members: 113204.
MIP emphasis: balance optimality and feasibility.
MIP search method: dynamic search.
Parallel mode: deterministic, using up to 8 threads.
Root relaxation solution time = 0.81 sec. (412.37 ticks)

        Nodes                                         Cuts/
   Node  Left     Objective  IInf  Best Integer    Best Bound    ItCnt     Gap

      0     0       32.4165  5223                     32.4165       19         
      0     0       53.0000   909                    Cuts: 51     9489         
      0     0       53.0000   702                    Cuts: 48    17465         
      0     0       53.0000   808                ZeroHalf: 53    24245         
*     0+    0                           58.0000       53.0000             8.62%
      0     0       53.0000   537       58.0000   ZeroHalf: 2    25544    8.62%
*     0+    0                           57.0000       53.0000             7.02%
      0     0       53.0000   685       57.0000      Cuts: 32    33495    7.02%
Heuristic still looking.
Heuristic still looking.
Heuristic still looking.
      0     2       53.0000   623       57.0000       53.0000    33715    7.02%
Elapsed time = 127.32 sec. (86101.08 ticks, tree = 0.02 MB, solutions = 2)
      1     3       53.0000   389       57.0000       53.0000    42053    7.02%
      2     4       53.0000   654       57.0000       53.0000    48776    7.02%
      3     3       53.0000   455       57.0000       53.0000    42046    7.02%
      4     4       53.0000   476       57.0000       53.0000    48058    7.02%
      5     6       53.0000   459       57.0000       53.0000    61237    7.02%
      6     6       53.0000   427       57.0000       53.0000    64122    7.02%
*     8+    6                           56.0000       53.0000             5.36%
      8     8       53.0000   486       56.0000       53.0000    68269    5.36%
     10    12       53.0000   501       56.0000       53.0000    95663    5.36%
     12    13       53.0000   539       56.0000       53.0000    99432    5.36%
     17    14       53.0000   452       56.0000       53.0000   114882    5.36%
Elapsed time = 185.49 sec. (105047.73 ticks, tree = 0.10 MB, solutions = 3)
     21     7       53.0000   448       56.0000       53.0000    67942    5.36%
     25    16       53.0588   423       56.0000       53.0000   115641    5.36%
     30    20       53.0769   450       56.0000       53.0000   132394    5.36%
     34    30       53.1111   237       56.0000       53.0000   188177    5.36%
     38    33       53.2778   271       56.0000       53.0000   204172    5.36%
Version identifier: 22.1.0.0 | 2022-03-09 | 1a383f8ce
CPXPARAM_Read_DataCheck                          1
Tried aggregator 4 times.
MIP Presolve eliminated 59616 rows and 6481 columns.
MIP Presolve modified 800 coefficients.
Aggregator did 54698 substitutions.
Reduced MIP has 6758 rows, 55845 columns, and 118562 nonzeros.
Reduced MIP has 55813 binaries, 32 generals, 0 SOSs, and 0 indicators.
Presolve time = 0.65 sec. (683.98 ticks)
Tried aggregator 1 time.
Detecting symmetries...
Reduced MIP has 6758 rows, 55845 columns, and 118562 nonzeros.
Reduced MIP has 55813 binaries, 32 generals, 0 SOSs, and 0 indicators.
Presolve time = 0.11 sec. (89.66 ticks)
Probing fixed 49 vars, tightened 0 bounds.
Probing time = 0.24 sec. (25.36 ticks)
Clique table members: 113204.
MIP emphasis: balance optimality and feasibility.
MIP search method: dynamic search.
Parallel mode: deterministic, using up to 8 threads.
Root relaxation solution time = 0.90 sec. (412.37 ticks)

        Nodes                                         Cuts/
   Node  Left     Objective  IInf  Best Integer    Best Bound    ItCnt     Gap

      0     0       32.4165  5223                     32.4165       19         
      0     0       53.0000   909                    Cuts: 51     9489         
      0     0       53.0000   702                    Cuts: 48    17465         
      0     0       53.0000   808                ZeroHalf: 53    24245         
*     0+    0                           58.0000       53.0000             8.62%
      0     0       53.0000   537       58.0000   ZeroHalf: 2    25544    8.62%
*     0+    0                           57.0000       53.0000             7.02%
      0     0       53.0000   685       57.0000      Cuts: 32    33495    7.02%
Heuristic still looking.
Heuristic still looking.
Heuristic still looking.
      0     2       53.0000   623       57.0000       53.0000    33715    7.02%
Elapsed time = 124.91 sec. (86101.08 ticks, tree = 0.02 MB, solutions = 2)
      1     3       53.0000   389       57.0000       53.0000    42053    7.02%
      2     4       53.0000   654       57.0000       53.0000    48776    7.02%
      3     3       53.0000   455       57.0000       53.0000    42046    7.02%
      4     4       53.0000   476       57.0000       53.0000    48058    7.02%
      5     6       53.0000   459       57.0000       53.0000    61237    7.02%
      6     6       53.0000   427       57.0000       53.0000    64122    7.02%
*     8+    6                           56.0000       53.0000             5.36%
      8     8       53.0000   486       56.0000       53.0000    68269    5.36%
     10    12       53.0000   501       56.0000       53.0000    95663    5.36%
     12    13       53.0000   539       56.0000       53.0000    99432    5.36%
     17    14       53.0000   452       56.0000       53.0000   114882    5.36%
Elapsed time = 183.79 sec. (105047.73 ticks, tree = 0.10 MB, solutions = 3)
     21     7       53.0000   448       56.0000       53.0000    67942    5.36%
     25    16       53.0588   423       56.0000       53.0000   115641    5.36%
     30    20       53.0769   450       56.0000       53.0000   132394    5.36%
     34    30       53.1111   237       56.0000       53.0000   188177    5.36%
     38    33       53.2778   271       56.0000       53.0000   204172    5.36%
     45    38       53.1111   246       56.0000       53.0000   212117    5.36%
     53    44       53.1111   228       56.0000       53.0000   225284    5.36%
     62    32       53.0476   851       56.0000       53.0000   251285    5.36%
     65    57       53.1111   150       56.0000       53.0000   332621    5.36%
     70    36       53.0000   701       56.0000       53.0000   285066    5.36%
Elapsed time = 235.76 sec. (116270.01 ticks, tree = 0.46 MB, solutions = 3)
     79    74       53.1111   178       56.0000       53.0000   489977    5.36%
     98    75       53.0526   623       56.0000       53.0000   502587    5.36%
*   100    65      integral     0       54.0000       53.0000   496264    1.85%
    108    74       53.0000  1018       54.0000       53.0000   526581    1.85%
    122    66        cutoff             54.0000       53.0000   547796    1.85%
    139    71       53.0000   395       54.0000       53.0000   551919    1.85%
    163    63       53.0000   411       54.0000       53.0000   554316    1.85%
    196    74       53.0000   323       54.0000       53.0000   620825    1.85%
    229    81    infeasible             54.0000       53.0000   626618    1.85%
    277    85       53.0000   371       54.0000       53.0000   641511    1.85%
*   318+  119                           53.0000       53.0000             0.00%
    319   160       53.0000   146       53.0000       53.0000   695393    0.00%
Elapsed time = 276.27 sec. (126221.94 ticks, tree = 3.52 MB, solutions = 5)
    337   169       53.0000   265       53.0000       53.0000   719697    0.00%
    345   171       53.0000   330       53.0000       53.0000   733506    0.00%
    355   155        cutoff             53.0000       53.0000   708780    0.00%
    359    92        cutoff             53.0000       53.0000   669651    0.00%

Zero-half cuts applied:  80
Lift and project cuts applied:  1
Gomory fractional cuts applied:  21

Root node processing (before b&c):
  Real time             =  124.64 sec. (86016.48 ticks)
Parallel b&c, 8 threads:
  Real time             =  161.70 sec. (45333.29 ticks)
  Sync time (average)   =   45.59 sec.
  Wait time (average)   =    0.00 sec.
                          ------------
Total (root+branch&cut) =  286.34 sec. (131349.77 ticks)
